00:00.0 clingo version 5.5.1
00:00.0 Reading from ...ols/../encodings/CTW_nat_optimal_V2.lp ...
01:43.871 Solving...
29:59.985 UNKNOWN
29:59.985 
29:59.985 TIME LIMIT   : 1
29:59.985 Models       : 0+
29:59.985 Calls        : 1
29:59.985 Time         : 1800.000s (Solving: 1696.11s 1st Model: 0.00s Unsat: 0.00s)
29:59.985 CPU Time     : 1799.969s
